TYPE : Vertex Cover
DIMENSION: 24
EDGE_DATA_SECTION:
0 9
0 13
0 22
1 5
1 10
1 13
2 8
2 19
3 12
3 14
3 16
3 17
3 23
4 8
4 19
5 7
5 14
7 9
7 16
7 17
7 19
7 22
8 12
9 12
9 14
10 15
10 21
11 22
12 19
13 19
13 20
14 18
15 19
15 20
16 17
17 18
18 20
18 22
18 23
19 20
20 21
20 22
-1
VERTEX_DEGREE:
3.0 3.0 2.0 5.0 2.0 3.0 0.0 6.0 3.0 4.0 3.0 1.0 4.0 4.0 4.0 3.0 3.0 4.0 5.0 7.0 6.0 2.0 5.0 2.0
VERTEX_COVER:
3 5 8 9 10 13 16 17 18 19 20 22
EOF
